p tdp 16 48
1 3
1 6
1 7
1 9
1 14
1 15
2 5
2 8
2 9
2 13
2 14
2 16
3 4
3 6
3 7
3 8
3 16
4 5
4 6
4 8
4 10
4 12
5 6
5 10
5 13
5 14
6 13
6 15
7 10
7 11
7 14
7 16
8 9
8 12
8 16
9 12
9 14
9 15
10 11
10 12
10 14
11 12
11 13
11 15
11 16
12 15
13 15
13 16
